Maximize
  x_QB_1 + x_QB_2 + x_QB_3 + x_QB_4 + x_QB_5 + x_QB_6 + x_QB_7 + x_QB_8
   + x_QB_9 + x_QB_10 + x_QB_11 + x_QB_12 + x_QB_13 + x_QB_14 + x_QB_15
   + x_QB_16 + x_QB_17 + x_QB_18 + x_QB_19 + x_QB_20 + x_RB_1 + x_RB_2
   + x_RB_3 + x_RB_4 + x_RB_5 + x_RB_6 + x_RB_7 + x_RB_8 + x_RB_9 + x_RB_10
   + x_RB_11 + x_RB_12 + x_RB_13 + x_RB_14 + x_RB_15 + x_RB_16 + x_RB_17
   + x_RB_18 + x_RB_19 + x_RB_20 + x_WR_1 + x_WR_2 + x_WR_3 + x_WR_4
   + x_WR_5 + x_WR_6 + x_WR_7 + x_WR_8 + x_WR_9 + x_WR_10 + x_WR_11
   + x_WR_12 + x_WR_13 + x_WR_14 + x_WR_15 + x_WR_16 + x_WR_17 + x_WR_18
   + x_WR_19 + x_WR_20 + x_TE_1 + x_TE_2 + x_TE_3 + x_TE_4 + x_TE_5
   + x_TE_6 + x_TE_7 + x_TE_8 + x_TE_9 + x_TE_10 + x_TE_11 + x_TE_12
   + x_TE_13 + x_TE_14 + x_TE_15 + x_TE_16 + x_TE_17 + x_TE_18 + x_TE_19
   + x_TE_20 + x_DST_1 + x_DST_2 + x_DST_3 + x_DST_4 + x_DST_5 + x_DST_6
   + x_DST_7 + x_DST_8 + x_DST_9 + x_DST_10 + x_DST_11 + x_DST_12
   + x_DST_13 + x_DST_14 + x_DST_15 + x_DST_16 + x_DST_17 + x_DST_18
   + x_DST_19 + x_DST_20 + x_K_1 + x_K_2 + x_K_3 + x_K_4 + x_K_5 + x_K_6
   + x_K_7 + x_K_8 + x_K_9 + x_K_10 + x_K_11 + x_K_12 + x_K_13 + x_K_14
   + x_K_15 + x_K_16 + x_K_17 + x_K_18 + x_K_19 + x_K_20
Subject To
 Draft13: x_QB_1 + x_QB_2 + x_QB_3 + x_QB_4 + x_QB_5 + x_QB_6 + x_QB_7
   + x_QB_8 + x_QB_9 + x_QB_10 + x_QB_11 + x_QB_12 + x_QB_13 + x_QB_14
   + x_QB_15 + x_QB_16 + x_QB_17 + x_QB_18 + x_QB_19 + x_QB_20 + x_RB_1
   + x_RB_2 + x_RB_3 + x_RB_4 + x_RB_5 + x_RB_6 + x_RB_7 + x_RB_8 + x_RB_9
   + x_RB_10 + x_RB_11 + x_RB_12 + x_RB_13 + x_RB_14 + x_RB_15 + x_RB_16
   + x_RB_17 + x_RB_18 + x_RB_19 + x_RB_20 + x_WR_1 + x_WR_2 + x_WR_3
   + x_WR_4 + x_WR_5 + x_WR_6 + x_WR_7 + x_WR_8 + x_WR_9 + x_WR_10
   + x_WR_11 + x_WR_12 + x_WR_13 + x_WR_14 + x_WR_15 + x_WR_16 + x_WR_17
   + x_WR_18 + x_WR_19 + x_WR_20 + x_TE_1 + x_TE_2 + x_TE_3 + x_TE_4
   + x_TE_5 + x_TE_6 + x_TE_7 + x_TE_8 + x_TE_9 + x_TE_10 + x_TE_11
   + x_TE_12 + x_TE_13 + x_TE_14 + x_TE_15 + x_TE_16 + x_TE_17 + x_TE_18
   + x_TE_19 + x_TE_20 + x_DST_1 + x_DST_2 + x_DST_3 + x_DST_4 + x_DST_5
   + x_DST_6 + x_DST_7 + x_DST_8 + x_DST_9 + x_DST_10 + x_DST_11 + x_DST_12
   + x_DST_13 + x_DST_14 + x_DST_15 + x_DST_16 + x_DST_17 + x_DST_18
   + x_DST_19 + x_DST_20 + x_K_1 + x_K_2 + x_K_3 + x_K_4 + x_K_5 + x_K_6
   + x_K_7 + x_K_8 + x_K_9 + x_K_10 + x_K_11 + x_K_12 + x_K_13 + x_K_14
   + x_K_15 + x_K_16 + x_K_17 + x_K_18 + x_K_19 + x_K_20 = 13
 UnderBudget: 49 x_QB_4 + 28.5 x_QB_7 + 19.2 x_QB_8 + 10.5 x_QB_10
   + 6.4 x_QB_11 + 4.266 x_QB_12 + 1.6 x_QB_13 + x_QB_14 + x_QB_15
   + x_QB_16 + x_QB_17 + x_QB_18 + x_QB_19 + x_QB_20 + 66 x_RB_1
   + 47.4 x_RB_2 + 37 x_RB_3 + 27.9 x_RB_4 + 21.666 x_RB_5 + 17 x_RB_6
   + 13.398 x_RB_7 + 8.6 x_RB_8 + 6.4 x_RB_9 + 5.8 x_RB_10 + 3.65 x_RB_11
   + 1.76 x_RB_12 + x_RB_13 + x_RB_14 + x_RB_15 + x_RB_16 + x_RB_17
   + x_RB_18 + x_RB_19 + x_RB_20 + 51 x_WR_1 + 34.56 x_WR_2 + 23.6 x_WR_3
   + 16.05 x_WR_4 + 12.6 x_WR_5 + 10.4 x_WR_6 + 7.534 x_WR_7 + 7.534 x_WR_8
   + 4.15 x_WR_9 + 3 x_WR_10 + 1.536 x_WR_11 + x_WR_12 + x_WR_13 + x_WR_14
   + x_WR_15 + x_WR_16 + x_WR_17 + x_WR_18 + x_WR_19 + x_WR_20 + 36 x_TE_2
   + 20 x_TE_6 + 5 x_TE_7 + 5 x_TE_8 + 5 x_TE_9 + 3 x_TE_10 + 3 x_TE_11
   + 3 x_TE_12 + 2 x_TE_13 + 2 x_TE_14 + x_TE_15 + x_TE_16 + x_TE_17
   + x_TE_18 + x_TE_19 + x_TE_20 + 3 x_DST_15 + 2 x_DST_16 + x_DST_17
   + x_DST_18 + x_DST_19 + x_DST_20 + x_K_20 <= 200
 AtLeastOneK: x_K_1 + x_K_2 + x_K_3 + x_K_4 + x_K_5 + x_K_6 + x_K_7 + x_K_8
   + x_K_9 + x_K_10 + x_K_11 + x_K_12 + x_K_13 + x_K_14 + x_K_15 + x_K_16
   + x_K_17 + x_K_18 + x_K_19 + x_K_20 >= 1
 AtLeastOneDST: x_DST_1 + x_DST_2 + x_DST_3 + x_DST_4 + x_DST_5 + x_DST_6
   + x_DST_7 + x_DST_8 + x_DST_9 + x_DST_10 + x_DST_11 + x_DST_12
   + x_DST_13 + x_DST_14 + x_DST_15 + x_DST_16 + x_DST_17 + x_DST_18
   + x_DST_19 + x_DST_20 >= 1
 AtLeastOneQB: x_QB_1 + x_QB_2 + x_QB_3 + x_QB_4 + x_QB_5 + x_QB_6 + x_QB_7
   + x_QB_8 + x_QB_9 + x_QB_10 + x_QB_11 + x_QB_12 + x_QB_13 + x_QB_14
   + x_QB_15 + x_QB_16 + x_QB_17 + x_QB_18 + x_QB_19 + x_QB_20 >= 1
 AtLeastTwoRB: x_RB_1 + x_RB_2 + x_RB_3 + x_RB_4 + x_RB_5 + x_RB_6 + x_RB_7
   + x_RB_8 + x_RB_9 + x_RB_10 + x_RB_11 + x_RB_12 + x_RB_13 + x_RB_14
   + x_RB_15 + x_RB_16 + x_RB_17 + x_RB_18 + x_RB_19 + x_RB_20 >= 2
 NoMoreThanMaxQBs: x_QB_1 + x_QB_2 + x_QB_3 + x_QB_4 + x_QB_5 + x_QB_6
   + x_QB_7 + x_QB_8 + x_QB_9 + x_QB_10 + x_QB_11 + x_QB_12 + x_QB_13
   + x_QB_14 + x_QB_15 + x_QB_16 + x_QB_17 + x_QB_18 + x_QB_19 + x_QB_20
   <= 2
 NoMoreThanMaxDSTs: x_DST_1 + x_DST_2 + x_DST_3 + x_DST_4 + x_DST_5
   + x_DST_6 + x_DST_7 + x_DST_8 + x_DST_9 + x_DST_10 + x_DST_11 + x_DST_12
   + x_DST_13 + x_DST_14 + x_DST_15 + x_DST_16 + x_DST_17 + x_DST_18
   + x_DST_19 + x_DST_20 <= 1
 NoMoreThanMaxKs: x_K_1 + x_K_2 + x_K_3 + x_K_4 + x_K_5 + x_K_6 + x_K_7
   + x_K_8 + x_K_9 + x_K_10 + x_K_11 + x_K_12 + x_K_13 + x_K_14 + x_K_15
   + x_K_16 + x_K_17 + x_K_18 + x_K_19 + x_K_20 <= 1
 NoMoreThanMaxTEs: x_TE_1 + x_TE_2 + x_TE_3 + x_TE_4 + x_TE_5 + x_TE_6
   + x_TE_7 + x_TE_8 + x_TE_9 + x_TE_10 + x_TE_11 + x_TE_12 + x_TE_13
   + x_TE_14 + x_TE_15 + x_TE_16 + x_TE_17 + x_TE_18 + x_TE_19 + x_TE_20
   <= 1
 NoMoreThanEightWRs: x_WR_1 + x_WR_2 + x_WR_3 + x_WR_4 + x_WR_5 + x_WR_6
   + x_WR_7 + x_WR_8 + x_WR_9 + x_WR_10 + x_WR_11 + x_WR_12 + x_WR_13
   + x_WR_14 + x_WR_15 + x_WR_16 + x_WR_17 + x_WR_18 + x_WR_19 + x_WR_20
   <= 8
 NoMoreThanEightRBs: x_RB_1 + x_RB_2 + x_RB_3 + x_RB_4 + x_RB_5 + x_RB_6
   + x_RB_7 + x_RB_8 + x_RB_9 + x_RB_10 + x_RB_11 + x_RB_12 + x_RB_13
   + x_RB_14 + x_RB_15 + x_RB_16 + x_RB_17 + x_RB_18 + x_RB_19 + x_RB_20
   <= 8
 NoMoreThanAvailableInTier_QB_1: x_QB_1 <= 0
 NoMoreThanAvailableInTier_QB_2: x_QB_2 <= 0
 NoMoreThanAvailableInTier_QB_3: x_QB_3 <= 0
 NoMoreThanAvailableInTier_QB_4: x_QB_4 <= 2
 NoMoreThanAvailableInTier_QB_5: x_QB_5 <= 0
 NoMoreThanAvailableInTier_QB_6: x_QB_6 <= 0
 NoMoreThanAvailableInTier_QB_7: x_QB_7 <= 2
 NoMoreThanAvailableInTier_QB_8: x_QB_8 <= 2
 NoMoreThanAvailableInTier_QB_9: x_QB_9 <= 0
 NoMoreThanAvailableInTier_QB_10: x_QB_10 <= 2
 NoMoreThanAvailableInTier_QB_11: x_QB_11 <= 1
 NoMoreThanAvailableInTier_QB_12: x_QB_12 <= 3
 NoMoreThanAvailableInTier_QB_13: x_QB_13 <= 2
 NoMoreThanAvailableInTier_QB_14: x_QB_14 <= 0
 NoMoreThanAvailableInTier_QB_15: x_QB_15 <= 0
 NoMoreThanAvailableInTier_QB_16: x_QB_16 <= 3
 NoMoreThanAvailableInTier_QB_17: x_QB_17 <= 0
 NoMoreThanAvailableInTier_QB_18: x_QB_18 <= 3
 NoMoreThanAvailableInTier_QB_19: x_QB_19 <= 0
 NoMoreThanAvailableInTier_QB_20: x_QB_20 <= 4
 NoMoreThanAvailableInTier_RB_1: x_RB_1 <= 4
 NoMoreThanAvailableInTier_RB_2: x_RB_2 <= 3
 NoMoreThanAvailableInTier_RB_3: x_RB_3 <= 4
 NoMoreThanAvailableInTier_RB_4: x_RB_4 <= 2
 NoMoreThanAvailableInTier_RB_5: x_RB_5 <= 3
 NoMoreThanAvailableInTier_RB_6: x_RB_6 <= 2
 NoMoreThanAvailableInTier_RB_7: x_RB_7 <= 3
 NoMoreThanAvailableInTier_RB_8: x_RB_8 <= 2
 NoMoreThanAvailableInTier_RB_9: x_RB_9 <= 1
 NoMoreThanAvailableInTier_RB_10: x_RB_10 <= 1
 NoMoreThanAvailableInTier_RB_11: x_RB_11 <= 4
 NoMoreThanAvailableInTier_RB_12: x_RB_12 <= 5
 NoMoreThanAvailableInTier_RB_13: x_RB_13 <= 3
 NoMoreThanAvailableInTier_RB_14: x_RB_14 <= 4
 NoMoreThanAvailableInTier_RB_15: x_RB_15 <= 4
 NoMoreThanAvailableInTier_RB_16: x_RB_16 <= 2
 NoMoreThanAvailableInTier_RB_17: x_RB_17 <= 1
 NoMoreThanAvailableInTier_RB_18: x_RB_18 <= 6
 NoMoreThanAvailableInTier_RB_19: x_RB_19 <= 4
 NoMoreThanAvailableInTier_RB_20: x_RB_20 <= 7
 NoMoreThanAvailableInTier_WR_1: x_WR_1 <= 1
 NoMoreThanAvailableInTier_WR_2: x_WR_2 <= 7
 NoMoreThanAvailableInTier_WR_3: x_WR_3 <= 2
 NoMoreThanAvailableInTier_WR_4: x_WR_4 <= 4
 NoMoreThanAvailableInTier_WR_5: x_WR_5 <= 1
 NoMoreThanAvailableInTier_WR_6: x_WR_6 <= 5
 NoMoreThanAvailableInTier_WR_7: x_WR_7 <= 3
 NoMoreThanAvailableInTier_WR_8: x_WR_8 <= 2
 NoMoreThanAvailableInTier_WR_9: x_WR_9 <= 4
 NoMoreThanAvailableInTier_WR_10: x_WR_10 <= 1
 NoMoreThanAvailableInTier_WR_11: x_WR_11 <= 6
 NoMoreThanAvailableInTier_WR_12: x_WR_12 <= 6
 NoMoreThanAvailableInTier_WR_13: x_WR_13 <= 3
 NoMoreThanAvailableInTier_WR_14: x_WR_14 <= 3
 NoMoreThanAvailableInTier_WR_15: x_WR_15 <= 2
 NoMoreThanAvailableInTier_WR_16: x_WR_16 <= 0
 NoMoreThanAvailableInTier_WR_17: x_WR_17 <= 6
 NoMoreThanAvailableInTier_WR_18: x_WR_18 <= 6
 NoMoreThanAvailableInTier_WR_19: x_WR_19 <= 2
 NoMoreThanAvailableInTier_WR_20: x_WR_20 <= 5
 NoMoreThanAvailableInTier_TE_1: x_TE_1 <= 0
 NoMoreThanAvailableInTier_TE_2: x_TE_2 <= 1
 NoMoreThanAvailableInTier_TE_3: x_TE_3 <= 0
 NoMoreThanAvailableInTier_TE_4: x_TE_4 <= 0
 NoMoreThanAvailableInTier_TE_5: x_TE_5 <= 0
 NoMoreThanAvailableInTier_TE_6: x_TE_6 <= 1
 NoMoreThanAvailableInTier_TE_7: x_TE_7 <= 1
 NoMoreThanAvailableInTier_TE_8: x_TE_8 <= 1
 NoMoreThanAvailableInTier_TE_9: x_TE_9 <= 0
 NoMoreThanAvailableInTier_TE_10: x_TE_10 <= 1
 NoMoreThanAvailableInTier_TE_11: x_TE_11 <= 0
 NoMoreThanAvailableInTier_TE_12: x_TE_12 <= 5
 NoMoreThanAvailableInTier_TE_13: x_TE_13 <= 0
 NoMoreThanAvailableInTier_TE_14: x_TE_14 <= 0
 NoMoreThanAvailableInTier_TE_15: x_TE_15 <= 9
 NoMoreThanAvailableInTier_TE_16: x_TE_16 <= 1
 NoMoreThanAvailableInTier_TE_17: x_TE_17 <= 1
 NoMoreThanAvailableInTier_TE_18: x_TE_18 <= 4
 NoMoreThanAvailableInTier_TE_19: x_TE_19 <= 0
 NoMoreThanAvailableInTier_TE_20: x_TE_20 <= 5
 NoMoreThanAvailableInTier_DST_1: x_DST_1 <= 0
 NoMoreThanAvailableInTier_DST_2: x_DST_2 <= 0
 NoMoreThanAvailableInTier_DST_3: x_DST_3 <= 0
 NoMoreThanAvailableInTier_DST_4: x_DST_4 <= 0
 NoMoreThanAvailableInTier_DST_5: x_DST_5 <= 0
 NoMoreThanAvailableInTier_DST_6: x_DST_6 <= 0
 NoMoreThanAvailableInTier_DST_7: x_DST_7 <= 0
 NoMoreThanAvailableInTier_DST_8: x_DST_8 <= 0
 NoMoreThanAvailableInTier_DST_9: x_DST_9 <= 0
 NoMoreThanAvailableInTier_DST_10: x_DST_10 <= 0
 NoMoreThanAvailableInTier_DST_11: x_DST_11 <= 0
 NoMoreThanAvailableInTier_DST_12: x_DST_12 <= 0
 NoMoreThanAvailableInTier_DST_13: x_DST_13 <= 0
 NoMoreThanAvailableInTier_DST_14: x_DST_14 <= 0
 NoMoreThanAvailableInTier_DST_15: x_DST_15 <= 1
 NoMoreThanAvailableInTier_DST_16: x_DST_16 <= 3
 NoMoreThanAvailableInTier_DST_17: x_DST_17 <= 0
 NoMoreThanAvailableInTier_DST_18: x_DST_18 <= 0
 NoMoreThanAvailableInTier_DST_19: x_DST_19 <= 1
 NoMoreThanAvailableInTier_DST_20: x_DST_20 <= 5
 NoMoreThanAvailableInTier_K_1: x_K_1 <= 0
 NoMoreThanAvailableInTier_K_2: x_K_2 <= 0
 NoMoreThanAvailableInTier_K_3: x_K_3 <= 0
 NoMoreThanAvailableInTier_K_4: x_K_4 <= 0
 NoMoreThanAvailableInTier_K_5: x_K_5 <= 0
 NoMoreThanAvailableInTier_K_6: x_K_6 <= 0
 NoMoreThanAvailableInTier_K_7: x_K_7 <= 0
 NoMoreThanAvailableInTier_K_8: x_K_8 <= 0
 NoMoreThanAvailableInTier_K_9: x_K_9 <= 0
 NoMoreThanAvailableInTier_K_10: x_K_10 <= 0
 NoMoreThanAvailableInTier_K_11: x_K_11 <= 0
 NoMoreThanAvailableInTier_K_12: x_K_12 <= 0
 NoMoreThanAvailableInTier_K_13: x_K_13 <= 0
 NoMoreThanAvailableInTier_K_14: x_K_14 <= 0
 NoMoreThanAvailableInTier_K_15: x_K_15 <= 0
 NoMoreThanAvailableInTier_K_16: x_K_16 <= 0
 NoMoreThanAvailableInTier_K_17: x_K_17 <= 0
 NoMoreThanAvailableInTier_K_18: x_K_18 <= 0
 NoMoreThanAvailableInTier_K_19: x_K_19 <= 0
 NoMoreThanAvailableInTier_K_20: x_K_20 <= 33
Bounds
Generals
 x_QB_1 x_QB_2 x_QB_3 x_QB_4 x_QB_5 x_QB_6 x_QB_7 x_QB_8 x_QB_9 x_QB_10
 x_QB_11 x_QB_12 x_QB_13 x_QB_14 x_QB_15 x_QB_16 x_QB_17 x_QB_18 x_QB_19
 x_QB_20 x_RB_1 x_RB_2 x_RB_3 x_RB_4 x_RB_5 x_RB_6 x_RB_7 x_RB_8 x_RB_9
 x_RB_10 x_RB_11 x_RB_12 x_RB_13 x_RB_14 x_RB_15 x_RB_16 x_RB_17 x_RB_18
 x_RB_19 x_RB_20 x_WR_1 x_WR_2 x_WR_3 x_WR_4 x_WR_5 x_WR_6 x_WR_7 x_WR_8
 x_WR_9 x_WR_10 x_WR_11 x_WR_12 x_WR_13 x_WR_14 x_WR_15 x_WR_16 x_WR_17
 x_WR_18 x_WR_19 x_WR_20 x_TE_1 x_TE_2 x_TE_3 x_TE_4 x_TE_5 x_TE_6 x_TE_7
 x_TE_8 x_TE_9 x_TE_10 x_TE_11 x_TE_12 x_TE_13 x_TE_14 x_TE_15 x_TE_16
 x_TE_17 x_TE_18 x_TE_19 x_TE_20 x_DST_1 x_DST_2 x_DST_3 x_DST_4 x_DST_5
 x_DST_6 x_DST_7 x_DST_8 x_DST_9 x_DST_10 x_DST_11 x_DST_12 x_DST_13
 x_DST_14 x_DST_15 x_DST_16 x_DST_17 x_DST_18 x_DST_19 x_DST_20 x_K_1 x_K_2
 x_K_3 x_K_4 x_K_5 x_K_6 x_K_7 x_K_8 x_K_9 x_K_10 x_K_11 x_K_12 x_K_13
 x_K_14 x_K_15 x_K_16 x_K_17 x_K_18 x_K_19 x_K_20
End
